43.42 7.15
43.42 7.23
45.1 5.43
48.41 6.12
48.35 7.45
49.36 6.09
50.47 6.05
50.44 7.05
50.5 12.55
49.14 6.59
50.07 8.4
49.25 8.43
49.48 9.56
49.27 11.04
49.03 8.24
48.46 9.11
49.01 12.06
48.08 11.34
46.12 6.09
46.31 6.38
46.57 7.26
47.33 7.35
47.23 8.32
47.16 11.24
47.48 13.02
48.18 14.18
48.13 16.2
47.05 15.27
45.03 7.4
45.28 9.12
45.27 11.0
45.27 12.21
45.4 13.46
44.25 8.57
44.29 11.2
43.46 11.15
43.55 12.28
50.16 19.0
50.03 19.58
49.45 13.23
50.05 14.26
49.5 18.17
49.12 16.37
48.09 17.07
47.3 19.05
46.05 18.13
46.03 14.31
45.2 14.27
45.48 15.58
43.52 18.25
